(set-option :produce-models true)
(set-logic QF_UF)
(declare-fun p29() Bool)
(declare-fun p52() Bool)
(declare-fun p15() Bool)
(declare-fun p35() Bool)
(declare-fun p48() Bool)
(declare-fun p8() Bool)
(declare-fun p43() Bool)
(declare-fun p46() Bool)
(declare-fun p36() Bool)
(declare-fun p14() Bool)
(declare-fun p44() Bool)
(declare-fun p39() Bool)
(declare-fun p26() Bool)
(declare-fun p51() Bool)
(declare-fun p47() Bool)
(declare-fun p33() Bool)
(declare-fun p41() Bool)
(declare-fun p25() Bool)
(declare-fun p23() Bool)
(declare-fun p19() Bool)
(declare-fun p13() Bool)
(declare-fun p20() Bool)
(declare-fun p10() Bool)
(declare-fun p9() Bool)
(declare-fun p37() Bool)
(declare-fun p30() Bool)
(declare-fun p59() Bool)
(declare-fun p12() Bool)
(declare-fun p24() Bool)
(declare-fun p34() Bool)
(declare-fun p56() Bool)
(declare-fun p40() Bool)
(declare-fun p57() Bool)
(declare-fun p45() Bool)
(declare-fun p21() Bool)
(declare-fun p6() Bool)
(declare-fun p32() Bool)
(declare-fun p17() Bool)
(declare-fun p1() Bool)
(declare-fun p58() Bool)
(declare-fun p53() Bool)
(declare-fun p22() Bool)
(declare-fun p5() Bool)
(declare-fun p11() Bool)
(declare-fun p38() Bool)
(declare-fun p55() Bool)
(declare-fun p3() Bool)
(declare-fun p18() Bool)
(declare-fun p49() Bool)
(declare-fun p4() Bool)
(declare-fun p50() Bool)
(declare-fun p16() Bool)
(declare-fun p28() Bool)
(declare-fun p7() Bool)
(declare-fun p54() Bool)
(declare-fun p2() Bool)
(declare-fun p0() Bool)
(declare-fun p27() Bool)
(declare-fun p31() Bool)
(declare-fun p42() Bool)
(assert
(and (or p29 p52 (not p15)) (or (not p35) (not p48) p8) (or p43 p46 (not p36)) (or (not p14) p44 p39) (or (not p26) (not p14) p51) (or p14 (not p51) (not p47)) (or (not p33) p48 (not p41)) (or p14 (not p25) (not p23)) (or (not p8) (not p19) p13) (or p20 p10 p9) (or (not p37) p30 (not p26)) (or p59 p29 (not p12)) (or p24 (not p30) p34) (or (not p34) (not p56) (not p40)) (or p48 p57 (not p45)) (or (not p21) (not p40) (not p59)) (or p6 p32 p45) (or p21 p51 (not p17)) (or p19 (not p26) p48) (or p1 p58 p48) (or p40 p25 p53) (or (not p13) (not p24) p59) (or p6 p21 (not p12)) (or (not p33) p29 (not p35)) (or (not p22) p6 p23) (or (not p33) (not p5) (not p30)) (or p25 p58 (not p11)) (or (not p21) (not p48) (not p34)) (or p38 (not p12) p19) (or p56 (not p45) p36) (or p24 p10 (not p59)) (or (not p22) p15 p17) (or (not p55) p52 (not p5)) (or p3 p48 p18) (or (not p49) (not p45) (not p25)) (or (not p12) p4 (not p49)) (or (not p3) (not p59) (not p55)) (or (not p23) (not p18) p57) (or p51 p50 p21) (or p45 (not p45) p59) (or (not p58) (not p18) p35) (or (not p59) (not p37) p48) (or p45 (not p4) p53) (or p32 p16 p26) (or (not p57) p52 p34) (or (not p26) (not p51) p5) (or p57 (not p41) p53) (or p13 p44 (not p15)) (or p1 (not p1) p11) (or (not p46) p35 p28) (or (not p33) p12 p26) (or (not p18) (not p51) (not p56)) (or (not p29) (not p7) p7) (or (not p32) p32 p24) (or (not p49) (not p56) p10) (or (not p23) (not p20) p52) (or p51 p30 (not p7)) (or p13 (not p49) (not p25)) (or (not p59) p11 p41) (or p4 p36 (not p45)) (or p44 p20 p52) (or (not p39) (not p28) p47) (or p47 (not p45) (not p57)) (or (not p8) p58 (not p50)) (or (not p53) p20 p54) (or (not p32) (not p12) p1) (or (not p9) (not p23) (not p32)) (or (not p39) p46 (not p9)) (or (not p19) p5 p43) (or (not p36) p34 (not p11)) (or p2 (not p0) p36) (or p53 (not p27) (not p9)) (or p47 p8 (not p7)) (or (not p14) p3 p6) (or (not p19) (not p32) p48) (or p33 p48 p21) (or (not p3) (not p46) (not p31)) (or (not p37) p17 (not p2)) (or p42 (not p44) (not p2)) (or p44 p58 p43) (or (not p42) p22 p43) (or (not p22) p25 (not p58)) (or (not p27) (not p10) p44) (or (not p11) (not p53) (not p48)) (or p27 p48 (not p13)) (or (not p18) (not p30) (not p43)) (or p18 p49 (not p37)) (or p48 p48 p17) (or (not p25) (not p3) (not p22)) (or p17 (not p48) p18) (or p32 (not p36) (not p16)) (or (not p26) (not p56) p31) (or (not p25) p11 (not p28)) (or p18 (not p51) (not p56)) (or (not p39) p52 (not p44)) (or (not p12) p16 (not p22)) (or p29 (not p2) (not p11)) (or (not p6) p47 p29) (or (not p52) p1 (not p24)) (or (not p16) (not p43) p55) (or p13 p16 p37) (or (not p1) p20 (not p10)) (or p4 (not p51) (not p57)) (or (not p38) (not p43) p40) (or p5 p3 p2) (or (not p52) p32 (not p49)) (or p19 (not p42) (not p31)) (or p51 p2 p9) (or p43 p8 (not p0)) (or p32 p28 p38) (or (not p53) (not p7) (not p9)) (or p52 (not p12) p36) (or (not p15) (not p49) (not p8)) (or (not p16) (not p13) p39) (or (not p46) p45 p14) (or p23 p19 p31) (or p0 p56 p17) (or p13 p56 (not p8)) (or p21 (not p41) p52) (or p32 (not p36) p6) (or p37 p32 (not p19)) (or p16 p21 p41) (or p33 p38 p46) (or (not p18) (not p51) p52) (or (not p50) p15 (not p53)) (or (not p54) (not p10) (not p47)) (or (not p21) (not p37) p42) (or p26 p53 p3) (or p38 p48 (not p27)) (or (not p32) p19 p58) (or p50 (not p13) p34) (or p6 p14 p31) (or (not p30) (not p40) p47) (or p34 (not p6) (not p17)) (or (not p11) (not p39) (not p49)) (or (not p27) p2 p37) (or p35 (not p9) p19) (or (not p25) p11 p35) (or p9 (not p37) (not p47)) (or p8 p1 p5) (or (not p20) (not p25) (not p56)) (or (not p9) (not p38) (not p58)) (or p52 p45 p21) (or (not p47) (not p51) (not p5)) (or p23 (not p13) p42) (or p53 (not p31) p59) (or p18 p9 (not p58)) (or (not p38) (not p18) p34) (or p7 (not p42) p29) (or p26 (not p0) p52) (or (not p31) p23 p32) (or p35 (not p20) p33) (or (not p32) p21 p43) (or (not p16) (not p3) p14) (or p50 p3 p58) (or (not p40) p25 (not p23)) (or p10 p21 (not p0)) (or p43 p1 (not p47)) (or (not p0) (not p44) (not p4)) (or (not p26) p5 (not p3)) (or (not p31) (not p14) p58) (or p7 p2 (not p0)) (or (not p31) p52 (not p16)) (or p29 (not p24) (not p56)) (or (not p17) p0 p11) (or (not p19) p51 p13) (or p54 p26 p44) (or (not p14) p34 p14) (or (not p29) (not p16) (not p26)) (or p34 p22 (not p14)) (or (not p24) (not p31) p54) (or p58 p42 (not p14)) (or p38 (not p43) p57) (or p45 (not p50) p30) (or (not p50) p59 p56) (or p22 p11 (not p43)) (or (not p33) p34 (not p26)) (or p5 (not p22) p46) (or p10 (not p42) p33) (or p36 p50 (not p57)) (or p57 (not p47) p27) (or (not p58) p9 p15) (or (not p6) p11 (not p4)) (or p52 (not p39) (not p16)) (or (not p36) p43 (not p52)) (or p45 (not p57) p42) (or p35 p40 p48) (or p29 (not p3) p50) (or p6 (not p44) (not p37)) (or (not p2) (not p9) (not p1)) (or p0 (not p31) p13) (or p11 p12 (not p49)) (or (not p34) p30 (not p33)) (or p18 p49 p15) (or p10 (not p17) (not p56)) (or (not p6) p48 p44) (or p54 p12 (not p27)) (or (not p0) p47 (not p29)) (or p41 (not p30) (not p21)) (or (not p17) (not p40) (not p53)) (or (not p50) p38 (not p32)) (or p15 p23 p41) (or (not p0) (not p38) (not p38)) (or p48 (not p48) (not p53)) (or p58 p47 p53) (or (not p25) p41 (not p0)) (or p3 (not p28) (not p3)) (or p24 (not p24) p40) (or (not p46) (not p25) p15) (or p30 p56 (not p32)) (or p15 (not p48) (not p16)) (or (not p58) (not p26) p44) (or (not p20) (not p58) p36) (or (not p15) p35 p52) (or p32 p26 p53) (or p16 (not p15) (not p2)) (or (not p30) p56 (not p42)) (or p28 p16 p51) (or p43 p13 p29) (or p36 (not p41) (not p47)) (or (not p29) p57 p8) (or p45 p1 (not p40)) (or p17 (not p21) p47) (or p46 (not p2) (not p25)) (or (not p9) p53 p48) (or p26 (not p47) p7) (or (not p40) (not p30) (not p44)) (or p47 (not p59) p21) (or p22 p26 (not p16)) (or p33 p30 p54) (or p36 (not p3) p29) (or (not p41) p8 p2) (or (not p32) (not p34) (not p56)) (or (not p51) (not p3) p3) (or p43 p52 (not p26)) (or p39 (not p8) p23) (or (not p15) p48 p21) (or (not p23) p58 p3) (or p47 (not p44) (not p9)) (or p31 (not p38) (not p58)) (or (not p7) (not p8) (not p30)) (or (not p51) p47 p37) (or (not p57) (not p46) p26) (or (not p23) (not p6) p18) (or (not p16) (not p21) (not p12)) (or p23 (not p39) (not p24)) (or p56 (not p11) (not p19)) (or (not p55) (not p39) p52) (or p26 p2 p19) (or p4 p40 p34) (or p58 (not p49) (not p11)) (or (not p41) p30 (not p22)))
)
(check-sat)
(get-model)
